(declare-const v0 Bool)
(declare-const v1 Bool)
(declare-const v2 Bool)
(declare-const v3 Bool)
(declare-const v4 Bool)
(assert (edge (not v0) v1))
(assert (edge (or (not v1) (not v0)) (or v2 v3 (not v1))))
(assert (edge v4 (or v4 (not v0))))
(assert (edge (or v0 v3) (or v1 (not v2))))
(assert (edge v4 (or v3 v4)))
(assert (not (edge v0 (or v0 v2))))